maximize
    obj: x1 + x2 + x3 + x4 + x5 + x6
subject to
r1: x1 + x2 <= 1
r2: x2 + x3 <= 1
r3: x1 + x3 <= 1
r4: x4 + x5 <= 1
r5: x5 + x6 <= 1
r6: x4 + x6 <= 1

binaries 
    x1
    x2
    x3
    x4
    x5
    x6

end
